p tdp 16 49
1 2
1 3
1 4
1 9
1 10
1 13
2 4
2 5
2 6
2 7
2 9
2 11
2 13
2 14
2 16
3 5
3 6
3 7
3 8
3 10
4 7
4 8
4 9
4 12
4 13
5 6
5 8
5 9
5 12
5 13
5 16
6 7
6 14
7 13
7 14
8 11
8 12
8 13
9 11
9 15
10 13
10 16
11 12
11 14
11 15
11 16
12 15
13 15
15 16
